NAME          DCAP_3_4_2_300_SS189
ROWS
 N  OBJ
 L  CON1
 L  CON2
 L  CON3
 L  CON4
 L  CON5
 L  CON6
 L  CON7
 L  CON8
 L  CON9
 L  CON10
 L  CON11
 L  CON12
 E  CON13
 E  CON14
 E  CON15
 E  CON16
 E  CON17
 E  CON18
 E  CON19
 E  CON20
COLUMNS
    x[1,1]    OBJ       6.180167      CON1      1.000000    
    x[1,1]    CON7      -1.000000     CON8      -1.000000   
    x[1,2]    OBJ       5.039546      CON2      1.000000    
    x[1,2]    CON8      -1.000000   
    x[2,1]    OBJ       6.732585      CON3      1.000000    
    x[2,1]    CON9      -1.000000     CON10     -1.000000   
    x[2,2]    OBJ       7.443064      CON4      1.000000    
    x[2,2]    CON10     -1.000000   
    x[3,1]    OBJ       6.563535      CON5      1.000000    
    x[3,1]    CON11     -1.000000     CON12     -1.000000   
    x[3,2]    OBJ       6.054841      CON6      1.000000    
    x[3,2]    CON12     -1.000000   
    MARKER    'MARKER'                'INTORG'
    u[1,1]    OBJ       48.076654     CON1      -1.000000   
    u[1,2]    OBJ       49.466655     CON2      -1.000000   
    u[2,1]    OBJ       49.996186     CON3      -1.000000   
    u[2,2]    OBJ       32.230043     CON4      -1.000000   
    u[3,1]    OBJ       20.066487     CON5      -1.000000   
    u[3,2]    OBJ       27.484319     CON6      -1.000000   
    y[1,1,1]  OBJ       8.637296      CON7      1.247153    
    y[1,1,1]  CON13     1.000000    
    y[1,1,2]  OBJ       8.949820      CON8      1.412103    
    y[1,1,2]  CON14     1.000000    
    y[1,2,1]  OBJ       5.942352      CON7      0.638681    
    y[1,2,1]  CON15     1.000000    
    y[1,2,2]  OBJ       5.939698      CON8      1.160719    
    y[1,2,2]  CON16     1.000000    
    y[1,3,1]  OBJ       8.846559      CON7      1.156233    
    y[1,3,1]  CON17     1.000000    
    y[1,3,2]  OBJ       5.226737      CON8      0.964571    
    y[1,3,2]  CON18     1.000000    
    y[1,4,1]  OBJ       5.299549      CON7      1.205561    
    y[1,4,1]  CON19     1.000000    
    y[1,4,2]  OBJ       7.172997      CON8      1.347920    
    y[1,4,2]  CON20     1.000000    
    y[2,1,1]  OBJ       6.236794      CON9      1.247153    
    y[2,1,1]  CON13     1.000000    
    y[2,1,2]  OBJ       7.798898      CON10     1.412103    
    y[2,1,2]  CON14     1.000000    
    y[2,2,1]  OBJ       8.581626      CON9      0.638681    
    y[2,2,1]  CON15     1.000000    
    y[2,2,2]  OBJ       8.083433      CON10     1.160719    
    y[2,2,2]  CON16     1.000000    
    y[2,3,1]  OBJ       5.737796      CON9      1.156233    
    y[2,3,1]  CON17     1.000000    
    y[2,3,2]  OBJ       5.878966      CON10     0.964571    
    y[2,3,2]  CON18     1.000000    
    y[2,4,1]  OBJ       6.838686      CON9      1.205561    
    y[2,4,1]  CON19     1.000000    
    y[2,4,2]  OBJ       8.688803      CON10     1.347920    
    y[2,4,2]  CON20     1.000000    
    y[3,1,1]  OBJ       5.283773      CON11     1.247153    
    y[3,1,1]  CON13     1.000000    
    y[3,1,2]  OBJ       6.961990      CON12     1.412103    
    y[3,1,2]  CON14     1.000000    
    y[3,2,1]  OBJ       6.826792      CON11     0.638681    
    y[3,2,1]  CON15     1.000000    
    y[3,2,2]  OBJ       6.878302      CON12     1.160719    
    y[3,2,2]  CON16     1.000000    
    y[3,3,1]  OBJ       8.021505      CON11     1.156233    
    y[3,3,1]  CON17     1.000000    
    y[3,3,2]  OBJ       9.943169      CON12     0.964571    
    y[3,3,2]  CON18     1.000000    
    y[3,4,1]  OBJ       7.085529      CON11     1.205561    
    y[3,4,1]  CON19     1.000000    
    y[3,4,2]  OBJ       9.455975      CON12     1.347920    
    y[3,4,2]  CON20     1.000000    
    z[1,1]    OBJ       926.947802    CON13     1.000000    
    z[1,2]    OBJ       962.773868    CON14     1.000000    
    z[2,1]    OBJ       769.123486    CON15     1.000000    
    z[2,2]    OBJ       984.682737    CON16     1.000000    
    z[3,1]    OBJ       739.355185    CON17     1.000000    
    z[3,2]    OBJ       903.002618    CON18     1.000000    
    z[4,1]    OBJ       588.929080    CON19     1.000000    
    z[4,2]    OBJ       673.216705    CON20     1.000000    
    MARKER    'MARKER'                 'INTEND'
RHS
    RHS       CON1      -0.000000     CON2      -0.000000   
    RHS       CON3      -0.000000     CON4      -0.000000   
    RHS       CON5      -0.000000     CON6      -0.000000   
    RHS       CON7      -0.000000     CON8      -0.000000   
    RHS       CON9      -0.000000     CON10     -0.000000   
    RHS       CON11     -0.000000     CON12     -0.000000   
    RHS       CON13     1.000000      CON14     1.000000    
    RHS       CON15     1.000000      CON16     1.000000    
    RHS       CON17     1.000000      CON18     1.000000    
    RHS       CON19     1.000000      CON20     1.000000    
BOUNDS
 BV BOUND     u[1,1]  
 BV BOUND     u[1,2]  
 BV BOUND     u[2,1]  
 BV BOUND     u[2,2]  
 BV BOUND     u[3,1]  
 BV BOUND     u[3,2]  
 BV BOUND     y[1,1,1]
 BV BOUND     y[1,1,2]
 BV BOUND     y[1,2,1]
 BV BOUND     y[1,2,2]
 BV BOUND     y[1,3,1]
 BV BOUND     y[1,3,2]
 BV BOUND     y[1,4,1]
 BV BOUND     y[1,4,2]
 BV BOUND     y[2,1,1]
 BV BOUND     y[2,1,2]
 BV BOUND     y[2,2,1]
 BV BOUND     y[2,2,2]
 BV BOUND     y[2,3,1]
 BV BOUND     y[2,3,2]
 BV BOUND     y[2,4,1]
 BV BOUND     y[2,4,2]
 BV BOUND     y[3,1,1]
 BV BOUND     y[3,1,2]
 BV BOUND     y[3,2,1]
 BV BOUND     y[3,2,2]
 BV BOUND     y[3,3,1]
 BV BOUND     y[3,3,2]
 BV BOUND     y[3,4,1]
 BV BOUND     y[3,4,2]
 BV BOUND     z[1,1]  
 BV BOUND     z[1,2]  
 BV BOUND     z[2,1]  
 BV BOUND     z[2,2]  
 BV BOUND     z[3,1]  
 BV BOUND     z[3,2]  
 BV BOUND     z[4,1]  
 BV BOUND     z[4,2]  
ENDATA
